c Random generated cnf formula, satisfiable: false
p cnf 10 50
-9 -8 -10 0
-9 -10 -3 0
4 8 9 0
10 9 -8 0
-4 6 8 0
2 -10 8 0
3 1 4 0
-5 -2 -7 0
-6 10 3 0
-2 10 -7 0
3 10 -4 0
1 7 -3 0
-9 4 2 0
-2 -5 -7 0
-9 -6 7 0
6 10 -8 0
10 7 8 0
10 -4 8 0
-8 -10 2 0
7 5 -8 0
-8 -5 4 0
4 -1 3 0
7 -4 -1 0
10 -3 7 0
6 -9 10 0
7 8 9 0
-3 1 -10 0
-2 10 -8 0
-10 -3 -9 0
2 -5 -9 0
-10 9 -5 0
-1 9 3 0
-6 2 -8 0
-2 9 -3 0
7 3 -1 0
1 9 3 0
6 5 9 0
5 7 4 0
3 -7 -9 0
-6 -7 5 0
1 9 -2 0
2 5 -4 0
-4 -9 2 0
3 5 2 0
10 -4 -3 0
10 -2 4 0
-2 -1 3 0
-10 -8 9 0
4 -5 -1 0
1 -7 -3 0
